\* Problem: tariff *\
Maximize
 obj: + 84660.18 X11 + 85608.32 X12 + 97095.8 X13 + 92325.8 X14 + 100418.6 X15 + 25264.58 X21 + 26212.72 X22 + 41351.8 X23 + 32591.8 X24 + 39928.6 X25 + 76601.38 X31 + 77549.52 X32 + 88435.8 X33 + 84261 X34 + 102219 X35 + 74788.78 X41 + 75736.92 X42 + 86457.6 X43 + 82454.4 X44 + 102454.8 X45 + 48075.34 X51 + 49023.48 X52 + 76971.36 X53 + 64628.16 X54 + 78986.16 X55 - 20070 X61 - 19121.86 X62 + 9691.22 X63 - 3556.78 X64 + 17037.62 X65 + 31259.34 X71 + 32207.48 X72 + 56815.76 X73 + 42809.36 X74 + 74104.16 X75

Subject To
 R1 : + X11 + X12 + X13 + X14 + X15 <= 15
 R2 : + X21 + X22 + X23 + X24 + X25 <= 15
 R3 : + X31 + X32 + X33 + X34 + X35 <= 15
 R4 : + X41 + X42 + X43 + X44 + X45 <= 15
 R5 : + X51 + X52 + X53 + X54 + X55 <= 11
 R6 : + X61 + X62 + X63 + X64 + X65 <= 8
 R7 : + X71 + X72 + X73 + X74 + X75 <= 40
 C1 : + X11 + X21 + X31 + X41 + X51 + X61 + X71 <= 31
 C2 : + X12 + X22 + X32 + X42 + X52 + X62 + X72 <= 15
 C3 : + X13 + X23 + X33 + X43 + X53 + X63 + X73 <= 5
 C4 : + X14 + X24 + X34 + X44 + X54 + X64 + X74 <= 5
 C5 : + X15 + X25 + X35 + X45 + X55 + X65 + X75 <= 4

Bounds
 X11 >= 0
 X12 >= 0
 X13 >= 0
 X14 >= 0
 X15 >= 0
 X21 >= 0
 X22 >= 0
 X23 >= 0
 X24 >= 0
 X25 >= 0
 X31 >= 0
 X32 >= 0
 X33 >= 0
 X34 >= 0
 X35 >= 0
 X41 >= 0
 X42 >= 0
 X43 >= 0
 X44 >= 0
 X45 >= 0
 X51 >= 0
 X52 >= 0
 X53 >= 0
 X54 >= 0
 X55 >= 0
 X61 >= 0
 X62 >= 0
 X63 >= 0
 X64 >= 0
 X65 >= 0
 X71 >= 0
 X72 >= 0
 X73 >= 0
 X74 >= 0
 X75 >= 0

End
